11932
11932
11932
11932
11932
11989
11989
12031
12031
12031
12031
12031
12031
12031
12113
12113
12194
12216
12216
12216
12216
12216
12291
12291
12291
12291
12291
12291
12291
12299
12299
12299
12299
12299
12299
12299
12319
12319
12319
12319
12319
12319
12319
12319
12319
12319
12319
12319
12319
12319
12319
12319
12319
12319
12319
12319
12319
12319
12319
12319
12319
12319
12319
12319
12319
12319
12319
12319
12319
12319
12319
12319
12319
12319
12319
12319
12319
12319
12319
12319
12319
12319
12319
12319
12319
12319
12319
12319
12319
12319
12319
12319
12319
12319
12319
12319
12319
12319
12319
